\* The alignment Problem *\
Minimize
objective_function_to_minimize:
 - 1.58335701022 z_vars__0___1___2__N__0___1___2_
 - 1.69067172402 z_vars__0___1___2__N__0___1___4_
 - 1.1287959112 z_vars__0___1___2__N__0___2___4_
 - 1.38493704678 z_vars__0___1___2__N__0___3___4_
 - 1.2325696968 z_vars__0___1___2__N__0___4___4_
 - 1.22220960503 z_vars__0___1___2__N__1___2___4_
 - 1.33051878847 z_vars__0___1___2__N__1___3___4_
 - 1.33123009825 z_vars__0___1___2__N__1___4___4_
 + 2 z_vars__0___1___2__N__2___3___4_ + 2 z_vars__0___1___2__N__2___4___4_
 - 0.777172749843 z_vars__0___1___2__N__3___4___4_
 - 1.25741265329 z_vars__0___1___5__N__0___1___2_
 - 1.27486859979 z_vars__0___1___5__N__0___1___4_
 - 1.31413771374 z_vars__0___1___5__N__0___2___4_
 - 1.44118088391 z_vars__0___1___5__N__0___3___4_
 - 1.43341529014 z_vars__0___1___5__N__0___4___4_
 + 2 z_vars__0___1___5__N__1___2___4_ + 2 z_vars__0___1___5__N__1___3___4_
 + 2 z_vars__0___1___5__N__1___4___4_ + 2 z_vars__0___1___5__N__2___3___4_
 + 2 z_vars__0___1___5__N__2___4___4_ + 2 z_vars__0___1___5__N__3___4___4_
 - 1.80551456277 z_vars__0___2___5__N__0___1___2_
 - 2 z_vars__0___2___5__N__0___1___4_
 - 1.35563094472 z_vars__0___2___5__N__0___2___4_
 - 1.66265207974 z_vars__0___2___5__N__0___3___4_
 - 1.59641893176 z_vars__0___2___5__N__0___4___4_
 - 1.22515879956 z_vars__0___2___5__N__1___2___4_
 - 1.34886348892 z_vars__0___2___5__N__1___3___4_
 - 1.41217389182 z_vars__0___2___5__N__1___4___4_
 + 2 z_vars__0___2___5__N__2___3___4_ + 2 z_vars__0___2___5__N__2___4___4_
 + 2 z_vars__0___2___5__N__3___4___4_
 - 1.71955238531 z_vars__0___3___5__N__0___1___2_
 - 1.35563094472 z_vars__0___3___5__N__0___1___4_
 - 2 z_vars__0___3___5__N__0___2___4_
 - 1.57020551464 z_vars__0___3___5__N__0___3___4_
 - 1.68459559722 z_vars__0___3___5__N__0___4___4_
 - 1.02188553496 z_vars__0___3___5__N__1___2___4_
 + 2 z_vars__0___3___5__N__1___3___4_ + 2 z_vars__0___3___5__N__1___4___4_
 - 1.21638584145 z_vars__0___3___5__N__2___3___4_
 - 1.31900943402 z_vars__0___3___5__N__2___4___4_
 + 2 z_vars__0___3___5__N__3___4___4_
 - 1.30668743091 z_vars__0___4___5__N__0___1___2_
 - 1.41057437785 z_vars__0___4___5__N__0___1___4_
 - 1.30027109458 z_vars__0___4___5__N__0___2___4_
 - 1.51273534141 z_vars__0___4___5__N__0___3___4_
 - 1.52356758149 z_vars__0___4___5__N__0___4___4_
 + 2 z_vars__0___4___5__N__1___2___4_ + 2 z_vars__0___4___5__N__1___3___4_
 + 2 z_vars__0___4___5__N__1___4___4_ + 2 z_vars__0___4___5__N__2___3___4_
 + 2 z_vars__0___4___5__N__2___4___4_ + 2 z_vars__0___4___5__N__3___4___4_
 - 1.4815391118 z_vars__0___5___5__N__0___1___2_
 - 1.59641893176 z_vars__0___5___5__N__0___1___4_
 - 1.68459559722 z_vars__0___5___5__N__0___2___4_
 - 1.84778695965 z_vars__0___5___5__N__0___3___4_
 - 2 z_vars__0___5___5__N__0___4___4_ + 2 z_vars__0___5___5__N__1___2___4_
 + 2 z_vars__0___5___5__N__1___3___4_ + 2 z_vars__0___5___5__N__1___4___4_
 + 2 z_vars__0___5___5__N__2___3___4_ + 2 z_vars__0___5___5__N__2___4___4_
 + 2 z_vars__0___5___5__N__3___4___4_
 - 1.24198775336 z_vars__1___2___3__N__0___1___2_
 - 0.90438311433 z_vars__1___2___3__N__0___1___4_
 - 0.733100920573 z_vars__1___2___3__N__0___2___4_
 + 2 z_vars__1___2___3__N__0___3___4_ + 2 z_vars__1___2___3__N__0___4___4_
 - 1.65643378171 z_vars__1___2___3__N__1___2___4_
 - 1.27312440529 z_vars__1___2___3__N__1___3___4_
 - 1.27973061527 z_vars__1___2___3__N__1___4___4_
 - 1.29083229483 z_vars__1___2___3__N__2___3___4_
 - 1.098517613 z_vars__1___2___3__N__2___4___4_
 - 0.732117574534 z_vars__1___2___3__N__3___4___4_
 - 0.885190666842 z_vars__1___2___5__N__0___1___2_
 - 0.934203004028 z_vars__1___2___5__N__0___1___4_
 + 2 z_vars__1___2___5__N__0___2___4_ + 2 z_vars__1___2___5__N__0___3___4_
 + 2 z_vars__1___2___5__N__0___4___4_
 - 1.25078257828 z_vars__1___2___5__N__1___2___4_
 - 1.46195343959 z_vars__1___2___5__N__1___3___4_
 - 1.48185254596 z_vars__1___2___5__N__1___4___4_
 + 2 z_vars__1___2___5__N__2___3___4_ + 2 z_vars__1___2___5__N__2___4___4_
 - 0.816745221866 z_vars__1___2___5__N__3___4___4_
 - 0.743093178759 z_vars__1___3___5__N__0___1___2_
 + 2 z_vars__1___3___5__N__0___1___4_
 - 0.771984559556 z_vars__1___3___5__N__0___2___4_
 + 2 z_vars__1___3___5__N__0___3___4_ + 2 z_vars__1___3___5__N__0___4___4_
 - 1.05274710707 z_vars__1___3___5__N__1___2___4_
 + 2 z_vars__1___3___5__N__1___3___4_ + 2 z_vars__1___3___5__N__1___4___4_
 - 1.32577605179 z_vars__1___3___5__N__2___3___4_
 - 1.36614438126 z_vars__1___3___5__N__2___4___4_
 + 2 z_vars__1___3___5__N__3___4___4_ + 2 z_vars__1___4___5__N__0___1___2_
 + 2 z_vars__1___4___5__N__0___1___4_ + 2 z_vars__1___4___5__N__0___2___4_
 + 2 z_vars__1___4___5__N__0___3___4_ + 2 z_vars__1___4___5__N__0___4___4_
 + 2 z_vars__1___4___5__N__1___2___4_ + 2 z_vars__1___4___5__N__1___3___4_
 + 2 z_vars__1___4___5__N__1___4___4_ + 2 z_vars__1___4___5__N__2___3___4_
 + 2 z_vars__1___4___5__N__2___4___4_ + 2 z_vars__1___4___5__N__3___4___4_
 + 2 z_vars__1___5___5__N__0___1___2_ + 2 z_vars__1___5___5__N__0___1___4_
 + 2 z_vars__1___5___5__N__0___2___4_ + 2 z_vars__1___5___5__N__0___3___4_
 + 2 z_vars__1___5___5__N__0___4___4_ + 2 z_vars__1___5___5__N__1___2___4_
 + 2 z_vars__1___5___5__N__1___3___4_ + 2 z_vars__1___5___5__N__1___4___4_
 + 2 z_vars__1___5___5__N__2___3___4_ + 2 z_vars__1___5___5__N__2___4___4_
 + 2 z_vars__1___5___5__N__3___4___4_
 - 1.6103557602 z_vars__2___3___5__N__0___1___2_
 - 1.22515879956 z_vars__2___3___5__N__0___1___4_
 - 1.02188553496 z_vars__2___3___5__N__0___2___4_
 + 2 z_vars__2___3___5__N__0___3___4_ + 2 z_vars__2___3___5__N__0___4___4_
 - 2 z_vars__2___3___5__N__1___2___4_
 - 1.46270930492 z_vars__2___3___5__N__1___3___4_
 - 1.54898004535 z_vars__2___3___5__N__1___4___4_
 - 1.45497443494 z_vars__2___3___5__N__2___3___4_
 - 1.32183711608 z_vars__2___3___5__N__2___4___4_
 + 2 z_vars__2___3___5__N__3___4___4_
 - 0.971420442519 z_vars__2___4___5__N__0___1___2_
 - 1.10513986324 z_vars__2___4___5__N__0___1___4_
 + 2 z_vars__2___4___5__N__0___2___4_ + 2 z_vars__2___4___5__N__0___3___4_
 + 2 z_vars__2___4___5__N__0___4___4_
 - 1.23068439861 z_vars__2___4___5__N__1___2___4_
 - 1.51945655108 z_vars__2___4___5__N__1___3___4_
 - 1.56863848934 z_vars__2___4___5__N__1___4___4_
 + 2 z_vars__2___4___5__N__2___3___4_ + 2 z_vars__2___4___5__N__2___4___4_
 - 0.793412852466 z_vars__2___4___5__N__3___4___4_
 - 1.22740489356 z_vars__2___5___5__N__0___1___2_
 - 1.41217389182 z_vars__2___5___5__N__0___1___4_
 + 2 z_vars__2___5___5__N__0___2___4_ + 2 z_vars__2___5___5__N__0___3___4_
 + 2 z_vars__2___5___5__N__0___4___4_
 - 1.54898004535 z_vars__2___5___5__N__1___2___4_
 - 1.86647862928 z_vars__2___5___5__N__1___3___4_
 - 2 z_vars__2___5___5__N__1___4___4_ + 2 z_vars__2___5___5__N__2___3___4_
 + 2 z_vars__2___5___5__N__2___4___4_
 - 0.832360542238 z_vars__2___5___5__N__3___4___4_
 - 0.925575403506 z_vars__3___4___5__N__0___1___2_
 + 2 z_vars__3___4___5__N__0___1___4_
 - 0.885526074609 z_vars__3___4___5__N__0___2___4_
 + 2 z_vars__3___4___5__N__0___3___4_ + 2 z_vars__3___4___5__N__0___4___4_
 - 1.14186112627 z_vars__3___4___5__N__1___2___4_
 + 2 z_vars__3___4___5__N__1___3___4_ + 2 z_vars__3___4___5__N__1___4___4_
 - 1.27972861946 z_vars__3___4___5__N__2___3___4_
 - 1.29454725087 z_vars__3___4___5__N__2___4___4_
 + 2 z_vars__3___4___5__N__3___4___4_
 - 1.08780289193 z_vars__3___5___5__N__0___1___2_
 + 2 z_vars__3___5___5__N__0___1___4_
 - 1.31900943402 z_vars__3___5___5__N__0___2___4_
 + 2 z_vars__3___5___5__N__0___3___4_ + 2 z_vars__3___5___5__N__0___4___4_
 - 1.32183711608 z_vars__3___5___5__N__1___2___4_
 + 2 z_vars__3___5___5__N__1___3___4_ + 2 z_vars__3___5___5__N__1___4___4_
 - 1.72178652272 z_vars__3___5___5__N__2___3___4_
 - 2 z_vars__3___5___5__N__2___4___4_ + 2 z_vars__3___5___5__N__3___4___4_
 + 2 z_vars__4___5___5__N__0___1___2_ + 2 z_vars__4___5___5__N__0___1___4_
 + 2 z_vars__4___5___5__N__0___2___4_ + 2 z_vars__4___5___5__N__0___3___4_
 + 2 z_vars__4___5___5__N__0___4___4_ + 2 z_vars__4___5___5__N__1___2___4_
 + 2 z_vars__4___5___5__N__1___3___4_ + 2 z_vars__4___5___5__N__1___4___4_
 + 2 z_vars__4___5___5__N__2___3___4_ + 2 z_vars__4___5___5__N__2___4___4_
 + 2 z_vars__4___5___5__N__3___4___4_
Subject To
matchfirst0: z_vars__0___1___2__N__0___1___2_
 + z_vars__0___1___2__N__0___1___4_ + z_vars__0___1___2__N__0___2___4_
 + z_vars__0___1___2__N__0___3___4_ + z_vars__0___1___2__N__0___4___4_
 + z_vars__0___1___2__N__1___2___4_ + z_vars__0___1___2__N__1___3___4_
 + z_vars__0___1___2__N__1___4___4_ + z_vars__0___1___2__N__2___3___4_
 + z_vars__0___1___2__N__2___4___4_ + z_vars__0___1___2__N__3___4___4_
 + z_vars__0___1___5__N__0___1___2_ + z_vars__0___1___5__N__0___1___4_
 + z_vars__0___1___5__N__0___2___4_ + z_vars__0___1___5__N__0___3___4_
 + z_vars__0___1___5__N__0___4___4_ + z_vars__0___1___5__N__1___2___4_
 + z_vars__0___1___5__N__1___3___4_ + z_vars__0___1___5__N__1___4___4_
 + z_vars__0___1___5__N__2___3___4_ + z_vars__0___1___5__N__2___4___4_
 + z_vars__0___1___5__N__3___4___4_ + z_vars__0___2___5__N__0___1___2_
 + z_vars__0___2___5__N__0___1___4_ + z_vars__0___2___5__N__0___2___4_
 + z_vars__0___2___5__N__0___3___4_ + z_vars__0___2___5__N__0___4___4_
 + z_vars__0___2___5__N__1___2___4_ + z_vars__0___2___5__N__1___3___4_
 + z_vars__0___2___5__N__1___4___4_ + z_vars__0___2___5__N__2___3___4_
 + z_vars__0___2___5__N__2___4___4_ + z_vars__0___2___5__N__3___4___4_
 + z_vars__0___3___5__N__0___1___2_ + z_vars__0___3___5__N__0___1___4_
 + z_vars__0___3___5__N__0___2___4_ + z_vars__0___3___5__N__0___3___4_
 + z_vars__0___3___5__N__0___4___4_ + z_vars__0___3___5__N__1___2___4_
 + z_vars__0___3___5__N__1___3___4_ + z_vars__0___3___5__N__1___4___4_
 + z_vars__0___3___5__N__2___3___4_ + z_vars__0___3___5__N__2___4___4_
 + z_vars__0___3___5__N__3___4___4_ + z_vars__0___4___5__N__0___1___2_
 + z_vars__0___4___5__N__0___1___4_ + z_vars__0___4___5__N__0___2___4_
 + z_vars__0___4___5__N__0___3___4_ + z_vars__0___4___5__N__0___4___4_
 + z_vars__0___4___5__N__1___2___4_ + z_vars__0___4___5__N__1___3___4_
 + z_vars__0___4___5__N__1___4___4_ + z_vars__0___4___5__N__2___3___4_
 + z_vars__0___4___5__N__2___4___4_ + z_vars__0___4___5__N__3___4___4_
 + z_vars__0___5___5__N__0___1___2_ + z_vars__0___5___5__N__0___1___4_
 + z_vars__0___5___5__N__0___2___4_ + z_vars__0___5___5__N__0___3___4_
 + z_vars__0___5___5__N__0___4___4_ + z_vars__0___5___5__N__1___2___4_
 + z_vars__0___5___5__N__1___3___4_ + z_vars__0___5___5__N__1___4___4_
 + z_vars__0___5___5__N__2___3___4_ + z_vars__0___5___5__N__2___4___4_
 + z_vars__0___5___5__N__3___4___4_ <= 1
matchfirst1: z_vars__0___1___2__N__0___1___2_
 + z_vars__0___1___2__N__0___1___4_ + z_vars__0___1___2__N__0___2___4_
 + z_vars__0___1___2__N__0___3___4_ + z_vars__0___1___2__N__0___4___4_
 + z_vars__0___1___2__N__1___2___4_ + z_vars__0___1___2__N__1___3___4_
 + z_vars__0___1___2__N__1___4___4_ + z_vars__0___1___2__N__2___3___4_
 + z_vars__0___1___2__N__2___4___4_ + z_vars__0___1___2__N__3___4___4_
 + z_vars__0___1___5__N__0___1___2_ + z_vars__0___1___5__N__0___1___4_
 + z_vars__0___1___5__N__0___2___4_ + z_vars__0___1___5__N__0___3___4_
 + z_vars__0___1___5__N__0___4___4_ + z_vars__0___1___5__N__1___2___4_
 + z_vars__0___1___5__N__1___3___4_ + z_vars__0___1___5__N__1___4___4_
 + z_vars__0___1___5__N__2___3___4_ + z_vars__0___1___5__N__2___4___4_
 + z_vars__0___1___5__N__3___4___4_ + z_vars__1___2___3__N__0___1___2_
 + z_vars__1___2___3__N__0___1___4_ + z_vars__1___2___3__N__0___2___4_
 + z_vars__1___2___3__N__0___3___4_ + z_vars__1___2___3__N__0___4___4_
 + z_vars__1___2___3__N__1___2___4_ + z_vars__1___2___3__N__1___3___4_
 + z_vars__1___2___3__N__1___4___4_ + z_vars__1___2___3__N__2___3___4_
 + z_vars__1___2___3__N__2___4___4_ + z_vars__1___2___3__N__3___4___4_
 + z_vars__1___2___5__N__0___1___2_ + z_vars__1___2___5__N__0___1___4_
 + z_vars__1___2___5__N__0___2___4_ + z_vars__1___2___5__N__0___3___4_
 + z_vars__1___2___5__N__0___4___4_ + z_vars__1___2___5__N__1___2___4_
 + z_vars__1___2___5__N__1___3___4_ + z_vars__1___2___5__N__1___4___4_
 + z_vars__1___2___5__N__2___3___4_ + z_vars__1___2___5__N__2___4___4_
 + z_vars__1___2___5__N__3___4___4_ + z_vars__1___3___5__N__0___1___2_
 + z_vars__1___3___5__N__0___1___4_ + z_vars__1___3___5__N__0___2___4_
 + z_vars__1___3___5__N__0___3___4_ + z_vars__1___3___5__N__0___4___4_
 + z_vars__1___3___5__N__1___2___4_ + z_vars__1___3___5__N__1___3___4_
 + z_vars__1___3___5__N__1___4___4_ + z_vars__1___3___5__N__2___3___4_
 + z_vars__1___3___5__N__2___4___4_ + z_vars__1___3___5__N__3___4___4_
 + z_vars__1___4___5__N__0___1___2_ + z_vars__1___4___5__N__0___1___4_
 + z_vars__1___4___5__N__0___2___4_ + z_vars__1___4___5__N__0___3___4_
 + z_vars__1___4___5__N__0___4___4_ + z_vars__1___4___5__N__1___2___4_
 + z_vars__1___4___5__N__1___3___4_ + z_vars__1___4___5__N__1___4___4_
 + z_vars__1___4___5__N__2___3___4_ + z_vars__1___4___5__N__2___4___4_
 + z_vars__1___4___5__N__3___4___4_ + z_vars__1___5___5__N__0___1___2_
 + z_vars__1___5___5__N__0___1___4_ + z_vars__1___5___5__N__0___2___4_
 + z_vars__1___5___5__N__0___3___4_ + z_vars__1___5___5__N__0___4___4_
 + z_vars__1___5___5__N__1___2___4_ + z_vars__1___5___5__N__1___3___4_
 + z_vars__1___5___5__N__1___4___4_ + z_vars__1___5___5__N__2___3___4_
 + z_vars__1___5___5__N__2___4___4_ + z_vars__1___5___5__N__3___4___4_ <= 1
matchfirst2: z_vars__0___1___2__N__0___1___2_
 + z_vars__0___1___2__N__0___1___4_ + z_vars__0___1___2__N__0___2___4_
 + z_vars__0___1___2__N__0___3___4_ + z_vars__0___1___2__N__0___4___4_
 + z_vars__0___1___2__N__1___2___4_ + z_vars__0___1___2__N__1___3___4_
 + z_vars__0___1___2__N__1___4___4_ + z_vars__0___1___2__N__2___3___4_
 + z_vars__0___1___2__N__2___4___4_ + z_vars__0___1___2__N__3___4___4_
 + z_vars__0___2___5__N__0___1___2_ + z_vars__0___2___5__N__0___1___4_
 + z_vars__0___2___5__N__0___2___4_ + z_vars__0___2___5__N__0___3___4_
 + z_vars__0___2___5__N__0___4___4_ + z_vars__0___2___5__N__1___2___4_
 + z_vars__0___2___5__N__1___3___4_ + z_vars__0___2___5__N__1___4___4_
 + z_vars__0___2___5__N__2___3___4_ + z_vars__0___2___5__N__2___4___4_
 + z_vars__0___2___5__N__3___4___4_ + z_vars__1___2___3__N__0___1___2_
 + z_vars__1___2___3__N__0___1___4_ + z_vars__1___2___3__N__0___2___4_
 + z_vars__1___2___3__N__0___3___4_ + z_vars__1___2___3__N__0___4___4_
 + z_vars__1___2___3__N__1___2___4_ + z_vars__1___2___3__N__1___3___4_
 + z_vars__1___2___3__N__1___4___4_ + z_vars__1___2___3__N__2___3___4_
 + z_vars__1___2___3__N__2___4___4_ + z_vars__1___2___3__N__3___4___4_
 + z_vars__1___2___5__N__0___1___2_ + z_vars__1___2___5__N__0___1___4_
 + z_vars__1___2___5__N__0___2___4_ + z_vars__1___2___5__N__0___3___4_
 + z_vars__1___2___5__N__0___4___4_ + z_vars__1___2___5__N__1___2___4_
 + z_vars__1___2___5__N__1___3___4_ + z_vars__1___2___5__N__1___4___4_
 + z_vars__1___2___5__N__2___3___4_ + z_vars__1___2___5__N__2___4___4_
 + z_vars__1___2___5__N__3___4___4_ + z_vars__2___3___5__N__0___1___2_
 + z_vars__2___3___5__N__0___1___4_ + z_vars__2___3___5__N__0___2___4_
 + z_vars__2___3___5__N__0___3___4_ + z_vars__2___3___5__N__0___4___4_
 + z_vars__2___3___5__N__1___2___4_ + z_vars__2___3___5__N__1___3___4_
 + z_vars__2___3___5__N__1___4___4_ + z_vars__2___3___5__N__2___3___4_
 + z_vars__2___3___5__N__2___4___4_ + z_vars__2___3___5__N__3___4___4_
 + z_vars__2___4___5__N__0___1___2_ + z_vars__2___4___5__N__0___1___4_
 + z_vars__2___4___5__N__0___2___4_ + z_vars__2___4___5__N__0___3___4_
 + z_vars__2___4___5__N__0___4___4_ + z_vars__2___4___5__N__1___2___4_
 + z_vars__2___4___5__N__1___3___4_ + z_vars__2___4___5__N__1___4___4_
 + z_vars__2___4___5__N__2___3___4_ + z_vars__2___4___5__N__2___4___4_
 + z_vars__2___4___5__N__3___4___4_ + z_vars__2___5___5__N__0___1___2_
 + z_vars__2___5___5__N__0___1___4_ + z_vars__2___5___5__N__0___2___4_
 + z_vars__2___5___5__N__0___3___4_ + z_vars__2___5___5__N__0___4___4_
 + z_vars__2___5___5__N__1___2___4_ + z_vars__2___5___5__N__1___3___4_
 + z_vars__2___5___5__N__1___4___4_ + z_vars__2___5___5__N__2___3___4_
 + z_vars__2___5___5__N__2___4___4_ + z_vars__2___5___5__N__3___4___4_ <= 1
matchfirst3: z_vars__0___3___5__N__0___1___2_
 + z_vars__0___3___5__N__0___1___4_ + z_vars__0___3___5__N__0___2___4_
 + z_vars__0___3___5__N__0___3___4_ + z_vars__0___3___5__N__0___4___4_
 + z_vars__0___3___5__N__1___2___4_ + z_vars__0___3___5__N__1___3___4_
 + z_vars__0___3___5__N__1___4___4_ + z_vars__0___3___5__N__2___3___4_
 + z_vars__0___3___5__N__2___4___4_ + z_vars__0___3___5__N__3___4___4_
 + z_vars__1___2___3__N__0___1___2_ + z_vars__1___2___3__N__0___1___4_
 + z_vars__1___2___3__N__0___2___4_ + z_vars__1___2___3__N__0___3___4_
 + z_vars__1___2___3__N__0___4___4_ + z_vars__1___2___3__N__1___2___4_
 + z_vars__1___2___3__N__1___3___4_ + z_vars__1___2___3__N__1___4___4_
 + z_vars__1___2___3__N__2___3___4_ + z_vars__1___2___3__N__2___4___4_
 + z_vars__1___2___3__N__3___4___4_ + z_vars__1___3___5__N__0___1___2_
 + z_vars__1___3___5__N__0___1___4_ + z_vars__1___3___5__N__0___2___4_
 + z_vars__1___3___5__N__0___3___4_ + z_vars__1___3___5__N__0___4___4_
 + z_vars__1___3___5__N__1___2___4_ + z_vars__1___3___5__N__1___3___4_
 + z_vars__1___3___5__N__1___4___4_ + z_vars__1___3___5__N__2___3___4_
 + z_vars__1___3___5__N__2___4___4_ + z_vars__1___3___5__N__3___4___4_
 + z_vars__2___3___5__N__0___1___2_ + z_vars__2___3___5__N__0___1___4_
 + z_vars__2___3___5__N__0___2___4_ + z_vars__2___3___5__N__0___3___4_
 + z_vars__2___3___5__N__0___4___4_ + z_vars__2___3___5__N__1___2___4_
 + z_vars__2___3___5__N__1___3___4_ + z_vars__2___3___5__N__1___4___4_
 + z_vars__2___3___5__N__2___3___4_ + z_vars__2___3___5__N__2___4___4_
 + z_vars__2___3___5__N__3___4___4_ + z_vars__3___4___5__N__0___1___2_
 + z_vars__3___4___5__N__0___1___4_ + z_vars__3___4___5__N__0___2___4_
 + z_vars__3___4___5__N__0___3___4_ + z_vars__3___4___5__N__0___4___4_
 + z_vars__3___4___5__N__1___2___4_ + z_vars__3___4___5__N__1___3___4_
 + z_vars__3___4___5__N__1___4___4_ + z_vars__3___4___5__N__2___3___4_
 + z_vars__3___4___5__N__2___4___4_ + z_vars__3___4___5__N__3___4___4_
 + z_vars__3___5___5__N__0___1___2_ + z_vars__3___5___5__N__0___1___4_
 + z_vars__3___5___5__N__0___2___4_ + z_vars__3___5___5__N__0___3___4_
 + z_vars__3___5___5__N__0___4___4_ + z_vars__3___5___5__N__1___2___4_
 + z_vars__3___5___5__N__1___3___4_ + z_vars__3___5___5__N__1___4___4_
 + z_vars__3___5___5__N__2___3___4_ + z_vars__3___5___5__N__2___4___4_
 + z_vars__3___5___5__N__3___4___4_ <= 1
matchfirst4: z_vars__0___4___5__N__0___1___2_
 + z_vars__0___4___5__N__0___1___4_ + z_vars__0___4___5__N__0___2___4_
 + z_vars__0___4___5__N__0___3___4_ + z_vars__0___4___5__N__0___4___4_
 + z_vars__0___4___5__N__1___2___4_ + z_vars__0___4___5__N__1___3___4_
 + z_vars__0___4___5__N__1___4___4_ + z_vars__0___4___5__N__2___3___4_
 + z_vars__0___4___5__N__2___4___4_ + z_vars__0___4___5__N__3___4___4_
 + z_vars__1___4___5__N__0___1___2_ + z_vars__1___4___5__N__0___1___4_
 + z_vars__1___4___5__N__0___2___4_ + z_vars__1___4___5__N__0___3___4_
 + z_vars__1___4___5__N__0___4___4_ + z_vars__1___4___5__N__1___2___4_
 + z_vars__1___4___5__N__1___3___4_ + z_vars__1___4___5__N__1___4___4_
 + z_vars__1___4___5__N__2___3___4_ + z_vars__1___4___5__N__2___4___4_
 + z_vars__1___4___5__N__3___4___4_ + z_vars__2___4___5__N__0___1___2_
 + z_vars__2___4___5__N__0___1___4_ + z_vars__2___4___5__N__0___2___4_
 + z_vars__2___4___5__N__0___3___4_ + z_vars__2___4___5__N__0___4___4_
 + z_vars__2___4___5__N__1___2___4_ + z_vars__2___4___5__N__1___3___4_
 + z_vars__2___4___5__N__1___4___4_ + z_vars__2___4___5__N__2___3___4_
 + z_vars__2___4___5__N__2___4___4_ + z_vars__2___4___5__N__3___4___4_
 + z_vars__3___4___5__N__0___1___2_ + z_vars__3___4___5__N__0___1___4_
 + z_vars__3___4___5__N__0___2___4_ + z_vars__3___4___5__N__0___3___4_
 + z_vars__3___4___5__N__0___4___4_ + z_vars__3___4___5__N__1___2___4_
 + z_vars__3___4___5__N__1___3___4_ + z_vars__3___4___5__N__1___4___4_
 + z_vars__3___4___5__N__2___3___4_ + z_vars__3___4___5__N__2___4___4_
 + z_vars__3___4___5__N__3___4___4_ + z_vars__4___5___5__N__0___1___2_
 + z_vars__4___5___5__N__0___1___4_ + z_vars__4___5___5__N__0___2___4_
 + z_vars__4___5___5__N__0___3___4_ + z_vars__4___5___5__N__0___4___4_
 + z_vars__4___5___5__N__1___2___4_ + z_vars__4___5___5__N__1___3___4_
 + z_vars__4___5___5__N__1___4___4_ + z_vars__4___5___5__N__2___3___4_
 + z_vars__4___5___5__N__2___4___4_ + z_vars__4___5___5__N__3___4___4_ <= 1
matchsecond0: z_vars__0___1___2__N__0___1___2_
 + z_vars__0___1___2__N__0___1___4_ + z_vars__0___1___2__N__0___2___4_
 + z_vars__0___1___2__N__0___3___4_ + z_vars__0___1___2__N__0___4___4_
 + z_vars__0___1___5__N__0___1___2_ + z_vars__0___1___5__N__0___1___4_
 + z_vars__0___1___5__N__0___2___4_ + z_vars__0___1___5__N__0___3___4_
 + z_vars__0___1___5__N__0___4___4_ + z_vars__0___2___5__N__0___1___2_
 + z_vars__0___2___5__N__0___1___4_ + z_vars__0___2___5__N__0___2___4_
 + z_vars__0___2___5__N__0___3___4_ + z_vars__0___2___5__N__0___4___4_
 + z_vars__0___3___5__N__0___1___2_ + z_vars__0___3___5__N__0___1___4_
 + z_vars__0___3___5__N__0___2___4_ + z_vars__0___3___5__N__0___3___4_
 + z_vars__0___3___5__N__0___4___4_ + z_vars__0___4___5__N__0___1___2_
 + z_vars__0___4___5__N__0___1___4_ + z_vars__0___4___5__N__0___2___4_
 + z_vars__0___4___5__N__0___3___4_ + z_vars__0___4___5__N__0___4___4_
 + z_vars__0___5___5__N__0___1___2_ + z_vars__0___5___5__N__0___1___4_
 + z_vars__0___5___5__N__0___2___4_ + z_vars__0___5___5__N__0___3___4_
 + z_vars__0___5___5__N__0___4___4_ + z_vars__1___2___3__N__0___1___2_
 + z_vars__1___2___3__N__0___1___4_ + z_vars__1___2___3__N__0___2___4_
 + z_vars__1___2___3__N__0___3___4_ + z_vars__1___2___3__N__0___4___4_
 + z_vars__1___2___5__N__0___1___2_ + z_vars__1___2___5__N__0___1___4_
 + z_vars__1___2___5__N__0___2___4_ + z_vars__1___2___5__N__0___3___4_
 + z_vars__1___2___5__N__0___4___4_ + z_vars__1___3___5__N__0___1___2_
 + z_vars__1___3___5__N__0___1___4_ + z_vars__1___3___5__N__0___2___4_
 + z_vars__1___3___5__N__0___3___4_ + z_vars__1___3___5__N__0___4___4_
 + z_vars__1___4___5__N__0___1___2_ + z_vars__1___4___5__N__0___1___4_
 + z_vars__1___4___5__N__0___2___4_ + z_vars__1___4___5__N__0___3___4_
 + z_vars__1___4___5__N__0___4___4_ + z_vars__1___5___5__N__0___1___2_
 + z_vars__1___5___5__N__0___1___4_ + z_vars__1___5___5__N__0___2___4_
 + z_vars__1___5___5__N__0___3___4_ + z_vars__1___5___5__N__0___4___4_
 + z_vars__2___3___5__N__0___1___2_ + z_vars__2___3___5__N__0___1___4_
 + z_vars__2___3___5__N__0___2___4_ + z_vars__2___3___5__N__0___3___4_
 + z_vars__2___3___5__N__0___4___4_ + z_vars__2___4___5__N__0___1___2_
 + z_vars__2___4___5__N__0___1___4_ + z_vars__2___4___5__N__0___2___4_
 + z_vars__2___4___5__N__0___3___4_ + z_vars__2___4___5__N__0___4___4_
 + z_vars__2___5___5__N__0___1___2_ + z_vars__2___5___5__N__0___1___4_
 + z_vars__2___5___5__N__0___2___4_ + z_vars__2___5___5__N__0___3___4_
 + z_vars__2___5___5__N__0___4___4_ + z_vars__3___4___5__N__0___1___2_
 + z_vars__3___4___5__N__0___1___4_ + z_vars__3___4___5__N__0___2___4_
 + z_vars__3___4___5__N__0___3___4_ + z_vars__3___4___5__N__0___4___4_
 + z_vars__3___5___5__N__0___1___2_ + z_vars__3___5___5__N__0___1___4_
 + z_vars__3___5___5__N__0___2___4_ + z_vars__3___5___5__N__0___3___4_
 + z_vars__3___5___5__N__0___4___4_ + z_vars__4___5___5__N__0___1___2_
 + z_vars__4___5___5__N__0___1___4_ + z_vars__4___5___5__N__0___2___4_
 + z_vars__4___5___5__N__0___3___4_ + z_vars__4___5___5__N__0___4___4_ <= 1
matchsecond1: z_vars__0___1___2__N__0___1___2_
 + z_vars__0___1___2__N__0___1___4_ + z_vars__0___1___2__N__1___2___4_
 + z_vars__0___1___2__N__1___3___4_ + z_vars__0___1___2__N__1___4___4_
 + z_vars__0___1___5__N__0___1___2_ + z_vars__0___1___5__N__0___1___4_
 + z_vars__0___1___5__N__1___2___4_ + z_vars__0___1___5__N__1___3___4_
 + z_vars__0___1___5__N__1___4___4_ + z_vars__0___2___5__N__0___1___2_
 + z_vars__0___2___5__N__0___1___4_ + z_vars__0___2___5__N__1___2___4_
 + z_vars__0___2___5__N__1___3___4_ + z_vars__0___2___5__N__1___4___4_
 + z_vars__0___3___5__N__0___1___2_ + z_vars__0___3___5__N__0___1___4_
 + z_vars__0___3___5__N__1___2___4_ + z_vars__0___3___5__N__1___3___4_
 + z_vars__0___3___5__N__1___4___4_ + z_vars__0___4___5__N__0___1___2_
 + z_vars__0___4___5__N__0___1___4_ + z_vars__0___4___5__N__1___2___4_
 + z_vars__0___4___5__N__1___3___4_ + z_vars__0___4___5__N__1___4___4_
 + z_vars__0___5___5__N__0___1___2_ + z_vars__0___5___5__N__0___1___4_
 + z_vars__0___5___5__N__1___2___4_ + z_vars__0___5___5__N__1___3___4_
 + z_vars__0___5___5__N__1___4___4_ + z_vars__1___2___3__N__0___1___2_
 + z_vars__1___2___3__N__0___1___4_ + z_vars__1___2___3__N__1___2___4_
 + z_vars__1___2___3__N__1___3___4_ + z_vars__1___2___3__N__1___4___4_
 + z_vars__1___2___5__N__0___1___2_ + z_vars__1___2___5__N__0___1___4_
 + z_vars__1___2___5__N__1___2___4_ + z_vars__1___2___5__N__1___3___4_
 + z_vars__1___2___5__N__1___4___4_ + z_vars__1___3___5__N__0___1___2_
 + z_vars__1___3___5__N__0___1___4_ + z_vars__1___3___5__N__1___2___4_
 + z_vars__1___3___5__N__1___3___4_ + z_vars__1___3___5__N__1___4___4_
 + z_vars__1___4___5__N__0___1___2_ + z_vars__1___4___5__N__0___1___4_
 + z_vars__1___4___5__N__1___2___4_ + z_vars__1___4___5__N__1___3___4_
 + z_vars__1___4___5__N__1___4___4_ + z_vars__1___5___5__N__0___1___2_
 + z_vars__1___5___5__N__0___1___4_ + z_vars__1___5___5__N__1___2___4_
 + z_vars__1___5___5__N__1___3___4_ + z_vars__1___5___5__N__1___4___4_
 + z_vars__2___3___5__N__0___1___2_ + z_vars__2___3___5__N__0___1___4_
 + z_vars__2___3___5__N__1___2___4_ + z_vars__2___3___5__N__1___3___4_
 + z_vars__2___3___5__N__1___4___4_ + z_vars__2___4___5__N__0___1___2_
 + z_vars__2___4___5__N__0___1___4_ + z_vars__2___4___5__N__1___2___4_
 + z_vars__2___4___5__N__1___3___4_ + z_vars__2___4___5__N__1___4___4_
 + z_vars__2___5___5__N__0___1___2_ + z_vars__2___5___5__N__0___1___4_
 + z_vars__2___5___5__N__1___2___4_ + z_vars__2___5___5__N__1___3___4_
 + z_vars__2___5___5__N__1___4___4_ + z_vars__3___4___5__N__0___1___2_
 + z_vars__3___4___5__N__0___1___4_ + z_vars__3___4___5__N__1___2___4_
 + z_vars__3___4___5__N__1___3___4_ + z_vars__3___4___5__N__1___4___4_
 + z_vars__3___5___5__N__0___1___2_ + z_vars__3___5___5__N__0___1___4_
 + z_vars__3___5___5__N__1___2___4_ + z_vars__3___5___5__N__1___3___4_
 + z_vars__3___5___5__N__1___4___4_ + z_vars__4___5___5__N__0___1___2_
 + z_vars__4___5___5__N__0___1___4_ + z_vars__4___5___5__N__1___2___4_
 + z_vars__4___5___5__N__1___3___4_ + z_vars__4___5___5__N__1___4___4_ <= 1
matchsecond2: z_vars__0___1___2__N__0___1___2_
 + z_vars__0___1___2__N__0___2___4_ + z_vars__0___1___2__N__1___2___4_
 + z_vars__0___1___2__N__2___3___4_ + z_vars__0___1___2__N__2___4___4_
 + z_vars__0___1___5__N__0___1___2_ + z_vars__0___1___5__N__0___2___4_
 + z_vars__0___1___5__N__1___2___4_ + z_vars__0___1___5__N__2___3___4_
 + z_vars__0___1___5__N__2___4___4_ + z_vars__0___2___5__N__0___1___2_
 + z_vars__0___2___5__N__0___2___4_ + z_vars__0___2___5__N__1___2___4_
 + z_vars__0___2___5__N__2___3___4_ + z_vars__0___2___5__N__2___4___4_
 + z_vars__0___3___5__N__0___1___2_ + z_vars__0___3___5__N__0___2___4_
 + z_vars__0___3___5__N__1___2___4_ + z_vars__0___3___5__N__2___3___4_
 + z_vars__0___3___5__N__2___4___4_ + z_vars__0___4___5__N__0___1___2_
 + z_vars__0___4___5__N__0___2___4_ + z_vars__0___4___5__N__1___2___4_
 + z_vars__0___4___5__N__2___3___4_ + z_vars__0___4___5__N__2___4___4_
 + z_vars__0___5___5__N__0___1___2_ + z_vars__0___5___5__N__0___2___4_
 + z_vars__0___5___5__N__1___2___4_ + z_vars__0___5___5__N__2___3___4_
 + z_vars__0___5___5__N__2___4___4_ + z_vars__1___2___3__N__0___1___2_
 + z_vars__1___2___3__N__0___2___4_ + z_vars__1___2___3__N__1___2___4_
 + z_vars__1___2___3__N__2___3___4_ + z_vars__1___2___3__N__2___4___4_
 + z_vars__1___2___5__N__0___1___2_ + z_vars__1___2___5__N__0___2___4_
 + z_vars__1___2___5__N__1___2___4_ + z_vars__1___2___5__N__2___3___4_
 + z_vars__1___2___5__N__2___4___4_ + z_vars__1___3___5__N__0___1___2_
 + z_vars__1___3___5__N__0___2___4_ + z_vars__1___3___5__N__1___2___4_
 + z_vars__1___3___5__N__2___3___4_ + z_vars__1___3___5__N__2___4___4_
 + z_vars__1___4___5__N__0___1___2_ + z_vars__1___4___5__N__0___2___4_
 + z_vars__1___4___5__N__1___2___4_ + z_vars__1___4___5__N__2___3___4_
 + z_vars__1___4___5__N__2___4___4_ + z_vars__1___5___5__N__0___1___2_
 + z_vars__1___5___5__N__0___2___4_ + z_vars__1___5___5__N__1___2___4_
 + z_vars__1___5___5__N__2___3___4_ + z_vars__1___5___5__N__2___4___4_
 + z_vars__2___3___5__N__0___1___2_ + z_vars__2___3___5__N__0___2___4_
 + z_vars__2___3___5__N__1___2___4_ + z_vars__2___3___5__N__2___3___4_
 + z_vars__2___3___5__N__2___4___4_ + z_vars__2___4___5__N__0___1___2_
 + z_vars__2___4___5__N__0___2___4_ + z_vars__2___4___5__N__1___2___4_
 + z_vars__2___4___5__N__2___3___4_ + z_vars__2___4___5__N__2___4___4_
 + z_vars__2___5___5__N__0___1___2_ + z_vars__2___5___5__N__0___2___4_
 + z_vars__2___5___5__N__1___2___4_ + z_vars__2___5___5__N__2___3___4_
 + z_vars__2___5___5__N__2___4___4_ + z_vars__3___4___5__N__0___1___2_
 + z_vars__3___4___5__N__0___2___4_ + z_vars__3___4___5__N__1___2___4_
 + z_vars__3___4___5__N__2___3___4_ + z_vars__3___4___5__N__2___4___4_
 + z_vars__3___5___5__N__0___1___2_ + z_vars__3___5___5__N__0___2___4_
 + z_vars__3___5___5__N__1___2___4_ + z_vars__3___5___5__N__2___3___4_
 + z_vars__3___5___5__N__2___4___4_ + z_vars__4___5___5__N__0___1___2_
 + z_vars__4___5___5__N__0___2___4_ + z_vars__4___5___5__N__1___2___4_
 + z_vars__4___5___5__N__2___3___4_ + z_vars__4___5___5__N__2___4___4_ <= 1
matchsecond3: z_vars__0___1___2__N__0___3___4_
 + z_vars__0___1___2__N__1___3___4_ + z_vars__0___1___2__N__2___3___4_
 + z_vars__0___1___2__N__3___4___4_ + z_vars__0___1___5__N__0___3___4_
 + z_vars__0___1___5__N__1___3___4_ + z_vars__0___1___5__N__2___3___4_
 + z_vars__0___1___5__N__3___4___4_ + z_vars__0___2___5__N__0___3___4_
 + z_vars__0___2___5__N__1___3___4_ + z_vars__0___2___5__N__2___3___4_
 + z_vars__0___2___5__N__3___4___4_ + z_vars__0___3___5__N__0___3___4_
 + z_vars__0___3___5__N__1___3___4_ + z_vars__0___3___5__N__2___3___4_
 + z_vars__0___3___5__N__3___4___4_ + z_vars__0___4___5__N__0___3___4_
 + z_vars__0___4___5__N__1___3___4_ + z_vars__0___4___5__N__2___3___4_
 + z_vars__0___4___5__N__3___4___4_ + z_vars__0___5___5__N__0___3___4_
 + z_vars__0___5___5__N__1___3___4_ + z_vars__0___5___5__N__2___3___4_
 + z_vars__0___5___5__N__3___4___4_ + z_vars__1___2___3__N__0___3___4_
 + z_vars__1___2___3__N__1___3___4_ + z_vars__1___2___3__N__2___3___4_
 + z_vars__1___2___3__N__3___4___4_ + z_vars__1___2___5__N__0___3___4_
 + z_vars__1___2___5__N__1___3___4_ + z_vars__1___2___5__N__2___3___4_
 + z_vars__1___2___5__N__3___4___4_ + z_vars__1___3___5__N__0___3___4_
 + z_vars__1___3___5__N__1___3___4_ + z_vars__1___3___5__N__2___3___4_
 + z_vars__1___3___5__N__3___4___4_ + z_vars__1___4___5__N__0___3___4_
 + z_vars__1___4___5__N__1___3___4_ + z_vars__1___4___5__N__2___3___4_
 + z_vars__1___4___5__N__3___4___4_ + z_vars__1___5___5__N__0___3___4_
 + z_vars__1___5___5__N__1___3___4_ + z_vars__1___5___5__N__2___3___4_
 + z_vars__1___5___5__N__3___4___4_ + z_vars__2___3___5__N__0___3___4_
 + z_vars__2___3___5__N__1___3___4_ + z_vars__2___3___5__N__2___3___4_
 + z_vars__2___3___5__N__3___4___4_ + z_vars__2___4___5__N__0___3___4_
 + z_vars__2___4___5__N__1___3___4_ + z_vars__2___4___5__N__2___3___4_
 + z_vars__2___4___5__N__3___4___4_ + z_vars__2___5___5__N__0___3___4_
 + z_vars__2___5___5__N__1___3___4_ + z_vars__2___5___5__N__2___3___4_
 + z_vars__2___5___5__N__3___4___4_ + z_vars__3___4___5__N__0___3___4_
 + z_vars__3___4___5__N__1___3___4_ + z_vars__3___4___5__N__2___3___4_
 + z_vars__3___4___5__N__3___4___4_ + z_vars__3___5___5__N__0___3___4_
 + z_vars__3___5___5__N__1___3___4_ + z_vars__3___5___5__N__2___3___4_
 + z_vars__3___5___5__N__3___4___4_ + z_vars__4___5___5__N__0___3___4_
 + z_vars__4___5___5__N__1___3___4_ + z_vars__4___5___5__N__2___3___4_
 + z_vars__4___5___5__N__3___4___4_ <= 1
Bounds
z_vars__0___1___2__N__0___1___2_ <= 1
z_vars__0___1___2__N__0___1___4_ <= 1
z_vars__0___1___2__N__0___2___4_ <= 1
z_vars__0___1___2__N__0___3___4_ <= 1
z_vars__0___1___2__N__0___4___4_ <= 1
z_vars__0___1___2__N__1___2___4_ <= 1
z_vars__0___1___2__N__1___3___4_ <= 1
z_vars__0___1___2__N__1___4___4_ <= 1
z_vars__0___1___2__N__2___3___4_ <= 1
z_vars__0___1___2__N__2___4___4_ <= 1
z_vars__0___1___2__N__3___4___4_ <= 1
z_vars__0___1___5__N__0___1___2_ <= 1
z_vars__0___1___5__N__0___1___4_ <= 1
z_vars__0___1___5__N__0___2___4_ <= 1
z_vars__0___1___5__N__0___3___4_ <= 1
z_vars__0___1___5__N__0___4___4_ <= 1
z_vars__0___1___5__N__1___2___4_ <= 1
z_vars__0___1___5__N__1___3___4_ <= 1
z_vars__0___1___5__N__1___4___4_ <= 1
z_vars__0___1___5__N__2___3___4_ <= 1
z_vars__0___1___5__N__2___4___4_ <= 1
z_vars__0___1___5__N__3___4___4_ <= 1
z_vars__0___2___5__N__0___1___2_ <= 1
z_vars__0___2___5__N__0___1___4_ <= 1
z_vars__0___2___5__N__0___2___4_ <= 1
z_vars__0___2___5__N__0___3___4_ <= 1
z_vars__0___2___5__N__0___4___4_ <= 1
z_vars__0___2___5__N__1___2___4_ <= 1
z_vars__0___2___5__N__1___3___4_ <= 1
z_vars__0___2___5__N__1___4___4_ <= 1
z_vars__0___2___5__N__2___3___4_ <= 1
z_vars__0___2___5__N__2___4___4_ <= 1
z_vars__0___2___5__N__3___4___4_ <= 1
z_vars__0___3___5__N__0___1___2_ <= 1
z_vars__0___3___5__N__0___1___4_ <= 1
z_vars__0___3___5__N__0___2___4_ <= 1
z_vars__0___3___5__N__0___3___4_ <= 1
z_vars__0___3___5__N__0___4___4_ <= 1
z_vars__0___3___5__N__1___2___4_ <= 1
z_vars__0___3___5__N__1___3___4_ <= 1
z_vars__0___3___5__N__1___4___4_ <= 1
z_vars__0___3___5__N__2___3___4_ <= 1
z_vars__0___3___5__N__2___4___4_ <= 1
z_vars__0___3___5__N__3___4___4_ <= 1
z_vars__0___4___5__N__0___1___2_ <= 1
z_vars__0___4___5__N__0___1___4_ <= 1
z_vars__0___4___5__N__0___2___4_ <= 1
z_vars__0___4___5__N__0___3___4_ <= 1
z_vars__0___4___5__N__0___4___4_ <= 1
z_vars__0___4___5__N__1___2___4_ <= 1
z_vars__0___4___5__N__1___3___4_ <= 1
z_vars__0___4___5__N__1___4___4_ <= 1
z_vars__0___4___5__N__2___3___4_ <= 1
z_vars__0___4___5__N__2___4___4_ <= 1
z_vars__0___4___5__N__3___4___4_ <= 1
z_vars__0___5___5__N__0___1___2_ <= 1
z_vars__0___5___5__N__0___1___4_ <= 1
z_vars__0___5___5__N__0___2___4_ <= 1
z_vars__0___5___5__N__0___3___4_ <= 1
z_vars__0___5___5__N__0___4___4_ <= 1
z_vars__0___5___5__N__1___2___4_ <= 1
z_vars__0___5___5__N__1___3___4_ <= 1
z_vars__0___5___5__N__1___4___4_ <= 1
z_vars__0___5___5__N__2___3___4_ <= 1
z_vars__0___5___5__N__2___4___4_ <= 1
z_vars__0___5___5__N__3___4___4_ <= 1
z_vars__1___2___3__N__0___1___2_ <= 1
z_vars__1___2___3__N__0___1___4_ <= 1
z_vars__1___2___3__N__0___2___4_ <= 1
z_vars__1___2___3__N__0___3___4_ <= 1
z_vars__1___2___3__N__0___4___4_ <= 1
z_vars__1___2___3__N__1___2___4_ <= 1
z_vars__1___2___3__N__1___3___4_ <= 1
z_vars__1___2___3__N__1___4___4_ <= 1
z_vars__1___2___3__N__2___3___4_ <= 1
z_vars__1___2___3__N__2___4___4_ <= 1
z_vars__1___2___3__N__3___4___4_ <= 1
z_vars__1___2___5__N__0___1___2_ <= 1
z_vars__1___2___5__N__0___1___4_ <= 1
z_vars__1___2___5__N__0___2___4_ <= 1
z_vars__1___2___5__N__0___3___4_ <= 1
z_vars__1___2___5__N__0___4___4_ <= 1
z_vars__1___2___5__N__1___2___4_ <= 1
z_vars__1___2___5__N__1___3___4_ <= 1
z_vars__1___2___5__N__1___4___4_ <= 1
z_vars__1___2___5__N__2___3___4_ <= 1
z_vars__1___2___5__N__2___4___4_ <= 1
z_vars__1___2___5__N__3___4___4_ <= 1
z_vars__1___3___5__N__0___1___2_ <= 1
z_vars__1___3___5__N__0___1___4_ <= 1
z_vars__1___3___5__N__0___2___4_ <= 1
z_vars__1___3___5__N__0___3___4_ <= 1
z_vars__1___3___5__N__0___4___4_ <= 1
z_vars__1___3___5__N__1___2___4_ <= 1
z_vars__1___3___5__N__1___3___4_ <= 1
z_vars__1___3___5__N__1___4___4_ <= 1
z_vars__1___3___5__N__2___3___4_ <= 1
z_vars__1___3___5__N__2___4___4_ <= 1
z_vars__1___3___5__N__3___4___4_ <= 1
z_vars__1___4___5__N__0___1___2_ <= 1
z_vars__1___4___5__N__0___1___4_ <= 1
z_vars__1___4___5__N__0___2___4_ <= 1
z_vars__1___4___5__N__0___3___4_ <= 1
z_vars__1___4___5__N__0___4___4_ <= 1
z_vars__1___4___5__N__1___2___4_ <= 1
z_vars__1___4___5__N__1___3___4_ <= 1
z_vars__1___4___5__N__1___4___4_ <= 1
z_vars__1___4___5__N__2___3___4_ <= 1
z_vars__1___4___5__N__2___4___4_ <= 1
z_vars__1___4___5__N__3___4___4_ <= 1
z_vars__1___5___5__N__0___1___2_ <= 1
z_vars__1___5___5__N__0___1___4_ <= 1
z_vars__1___5___5__N__0___2___4_ <= 1
z_vars__1___5___5__N__0___3___4_ <= 1
z_vars__1___5___5__N__0___4___4_ <= 1
z_vars__1___5___5__N__1___2___4_ <= 1
z_vars__1___5___5__N__1___3___4_ <= 1
z_vars__1___5___5__N__1___4___4_ <= 1
z_vars__1___5___5__N__2___3___4_ <= 1
z_vars__1___5___5__N__2___4___4_ <= 1
z_vars__1___5___5__N__3___4___4_ <= 1
z_vars__2___3___5__N__0___1___2_ <= 1
z_vars__2___3___5__N__0___1___4_ <= 1
z_vars__2___3___5__N__0___2___4_ <= 1
z_vars__2___3___5__N__0___3___4_ <= 1
z_vars__2___3___5__N__0___4___4_ <= 1
z_vars__2___3___5__N__1___2___4_ <= 1
z_vars__2___3___5__N__1___3___4_ <= 1
z_vars__2___3___5__N__1___4___4_ <= 1
z_vars__2___3___5__N__2___3___4_ <= 1
z_vars__2___3___5__N__2___4___4_ <= 1
z_vars__2___3___5__N__3___4___4_ <= 1
z_vars__2___4___5__N__0___1___2_ <= 1
z_vars__2___4___5__N__0___1___4_ <= 1
z_vars__2___4___5__N__0___2___4_ <= 1
z_vars__2___4___5__N__0___3___4_ <= 1
z_vars__2___4___5__N__0___4___4_ <= 1
z_vars__2___4___5__N__1___2___4_ <= 1
z_vars__2___4___5__N__1___3___4_ <= 1
z_vars__2___4___5__N__1___4___4_ <= 1
z_vars__2___4___5__N__2___3___4_ <= 1
z_vars__2___4___5__N__2___4___4_ <= 1
z_vars__2___4___5__N__3___4___4_ <= 1
z_vars__2___5___5__N__0___1___2_ <= 1
z_vars__2___5___5__N__0___1___4_ <= 1
z_vars__2___5___5__N__0___2___4_ <= 1
z_vars__2___5___5__N__0___3___4_ <= 1
z_vars__2___5___5__N__0___4___4_ <= 1
z_vars__2___5___5__N__1___2___4_ <= 1
z_vars__2___5___5__N__1___3___4_ <= 1
z_vars__2___5___5__N__1___4___4_ <= 1
z_vars__2___5___5__N__2___3___4_ <= 1
z_vars__2___5___5__N__2___4___4_ <= 1
z_vars__2___5___5__N__3___4___4_ <= 1
z_vars__3___4___5__N__0___1___2_ <= 1
z_vars__3___4___5__N__0___1___4_ <= 1
z_vars__3___4___5__N__0___2___4_ <= 1
z_vars__3___4___5__N__0___3___4_ <= 1
z_vars__3___4___5__N__0___4___4_ <= 1
z_vars__3___4___5__N__1___2___4_ <= 1
z_vars__3___4___5__N__1___3___4_ <= 1
z_vars__3___4___5__N__1___4___4_ <= 1
z_vars__3___4___5__N__2___3___4_ <= 1
z_vars__3___4___5__N__2___4___4_ <= 1
z_vars__3___4___5__N__3___4___4_ <= 1
z_vars__3___5___5__N__0___1___2_ <= 1
z_vars__3___5___5__N__0___1___4_ <= 1
z_vars__3___5___5__N__0___2___4_ <= 1
z_vars__3___5___5__N__0___3___4_ <= 1
z_vars__3___5___5__N__0___4___4_ <= 1
z_vars__3___5___5__N__1___2___4_ <= 1
z_vars__3___5___5__N__1___3___4_ <= 1
z_vars__3___5___5__N__1___4___4_ <= 1
z_vars__3___5___5__N__2___3___4_ <= 1
z_vars__3___5___5__N__2___4___4_ <= 1
z_vars__3___5___5__N__3___4___4_ <= 1
z_vars__4___5___5__N__0___1___2_ <= 1
z_vars__4___5___5__N__0___1___4_ <= 1
z_vars__4___5___5__N__0___2___4_ <= 1
z_vars__4___5___5__N__0___3___4_ <= 1
z_vars__4___5___5__N__0___4___4_ <= 1
z_vars__4___5___5__N__1___2___4_ <= 1
z_vars__4___5___5__N__1___3___4_ <= 1
z_vars__4___5___5__N__1___4___4_ <= 1
z_vars__4___5___5__N__2___3___4_ <= 1
z_vars__4___5___5__N__2___4___4_ <= 1
z_vars__4___5___5__N__3___4___4_ <= 1
End
